# 26816
param k := 6;
param n := 50;
param s := 1;
set E :=  (0,17) (0,23) (0,36) (0,47) (1,12) (1,34) (2,15) (2,29) (2,31) (3,37) (4,21) (4,46) (5,12) (5,17) (5,29) (5,32) (6,16) (6,25) (6,38) (7,8) (7,26) (7,33) (8,17) (8,49) (9,10) (9,42) (10,19) (10,22) (10,29) (10,39) (10,49) (11,42) (12,15) (12,20) (13,16) (13,27) (13,28) (14,40) (15,18) (15,44) (16,49) (18,35) (19,31) (19,40) (20,41) (20,43) (21,37) (21,48) (24,26) (24,33) (25,38) (27,46) (28,32) (29,33) (29,47) (30,38) (31,46) (32,34) (32,39) (33,36) (33,37) (45,49);